c
c Renamed file of cm152a.cnf 
c Variables are renamed according to left2right.ord 
c
c Date: Thu Apr 29 14:49:12 PDT 2004 by (jinbo)
c Host: Linux solution 2.4.18-4smp #1 SMP Thu May 2 18:32:34 EDT 2002 i686 unknown
c
c Copyright (c) 2001 Fadi A. Aloul.
c
p cnf 20 49
-15 -9 0
-14 -9 0
1 -9 0
12 -9 0
9 15 14 -1 -12 0
-9 18 0
-15 -13 0
-14 -13 0
3 -13 0
-12 -13 0
13 15 14 -3 12 0
-13 18 0
-15 -10 0
14 -10 0
-12 -10 0
2 -10 0
10 15 -14 12 -2 0
-10 18 0
-15 -11 0
14 -11 0
12 -11 0
8 -11 0
11 15 -14 -12 -8 0
-11 18 0
15 -16 0
-14 -16 0
-12 -16 0
4 -16 0
16 -15 14 12 -4 0
-16 18 0
15 -17 0
-14 -17 0
12 -17 0
5 -17 0
17 -15 14 -12 -5 0
-17 18 0
15 -19 0
14 -19 0
-12 -19 0
6 -19 0
19 -15 -14 12 -6 0
-19 18 0
15 -20 0
14 -20 0
12 -20 0
7 -20 0
20 -15 -14 -12 -7 0
-20 18 0
-18 9 13 10 11 16 17 19 20 0
